benchmarks_CP/INST_36x36/35/inst36x36_35_64.dzn
S=6;
start=[|
-1,	11,	31,	2,	-1,	-1,	-1,	19,	-1,	3,	-1,	-1,	20,	-1,	9,	33,	-1,	10,	-1,	15,	34,	5,	-1,	-1,	-1,	32,	30,	23,	-1,	-1,	-1,	-1,	-1,	-1,	-1,	-1|
-1,	-1,	-1,	34,	-1,	-1,	-1,	-1,	-1,	-1,	-1,	-1,	1,	32,	21,	-1,	-1,	-1,	-1,	-1,	-1,	-1,	4,	-1,	-1,	14,	11,	-1,	-1,	18,	-1,	-1,	20,	33,	-1,	26|
-1,	15,	-1,	-1,	9,	-1,	-1,	-1,	25,	20,	16,	-1,	29,	-1,	-1,	31,	-1,	18,	17,	-1,	7,	11,	24,	-1,	-1,	-1,	26,	3,	-1,	-1,	-1,	-1,	8,	-1,	-1,	-1|
-1,	17,	4,	-1,	-1,	-1,	9,	-1,	-1,	-1,	-1,	-1,	-1,	-1,	-1,	-1,	28,	-1,	-1,	-1,	30,	-1,	-1,	-1,	-1,	-1,	-1,	-1,	10,	-1,	-1,	11,	-1,	6,	-1,	-1|
-1,	-1,	25,	36,	5,	-1,	-1,	-1,	-1,	27,	-1,	-1,	-1,	-1,	-1,	-1,	-1,	-1,	-1,	-1,	14,	19,	-1,	-1,	-1,	-1,	-1,	-1,	22,	-1,	-1,	-1,	-1,	-1,	-1,	-1|
16,	-1,	23,	-1,	-1,	-1,	-1,	-1,	11,	33,	-1,	-1,	-1,	8,	-1,	36,	30,	7,	-1,	31,	-1,	10,	-1,	-1,	-1,	-1,	-1,	28,	19,	13,	-1,	-1,	-1,	-1,	-1,	-1|
-1,	-1,	-1,	-1,	-1,	-1,	-1,	-1,	-1,	22,	-1,	-1,	-1,	-1,	32,	14,	-1,	33,	-1,	-1,	-1,	-1,	-1,	-1,	-1,	-1,	-1,	11,	-1,	-1,	16,	26,	-1,	1,	-1,	-1|
20,	-1,	-1,	-1,	-1,	-1,	30,	-1,	-1,	-1,	-1,	3,	24,	-1,	2,	-1,	-1,	29,	28,	-1,	35,	1,	19,	25,	18,	-1,	-1,	5,	4,	33,	-1,	-1,	-1,	23,	-1,	-1|
-1,	-1,	-1,	7,	-1,	-1,	33,	-1,	-1,	18,	32,	-1,	-1,	-1,	-1,	-1,	26,	11,	-1,	-1,	-1,	-1,	-1,	30,	31,	-1,	-1,	13,	-1,	-1,	21,	-1,	-1,	-1,	9,	-1|
10,	33,	28,	-1,	-1,	9,	21,	31,	-1,	24,	-1,	16,	7,	-1,	-1,	-1,	23,	-1,	8,	-1,	-1,	-1,	-1,	17,	14,	15,	27,	35,	1,	29,	11,	3,	-1,	-1,	34,	-1|
34,	12,	24,	22,	-1,	-1,	-1,	35,	-1,	25,	-1,	11,	-1,	-1,	8,	-1,	-1,	15,	-1,	3,	26,	-1,	-1,	20,	-1,	-1,	32,	-1,	-1,	-1,	-1,	-1,	-1,	-1,	-1,	-1|
-1,	16,	-1,	-1,	15,	-1,	-1,	14,	8,	19,	-1,	10,	-1,	-1,	30,	3,	20,	13,	-1,	11,	-1,	21,	33,	-1,	34,	-1,	-1,	-1,	-1,	-1,	-1,	-1,	12,	-1,	-1,	-1|
-1,	-1,	29,	-1,	-1,	-1,	-1,	-1,	-1,	36,	24,	-1,	10,	-1,	-1,	-1,	-1,	-1,	-1,	-1,	-1,	-1,	-1,	16,	-1,	31,	34,	-1,	23,	-1,	-1,	14,	-1,	13,	1,	12|
-1,	21,	-1,	-1,	-1,	-1,	-1,	-1,	-1,	12,	26,	18,	-1,	-1,	-1,	34,	-1,	-1,	-1,	1,	-1,	-1,	11,	-1,	10,	-1,	25,	-1,	-1,	-1,	-1,	31,	17,	7,	-1,	-1|
11,	-1,	-1,	28,	7,	10,	-1,	-1,	-1,	2,	-1,	19,	-1,	-1,	12,	16,	24,	6,	-1,	-1,	-1,	-1,	20,	-1,	5,	-1,	33,	-1,	-1,	-1,	36,	34,	21,	-1,	23,	8|
27,	-1,	12,	-1,	25,	-1,	-1,	-1,	-1,	1,	10,	14,	-1,	-1,	-1,	-1,	36,	-1,	-1,	-1,	15,	-1,	-1,	-1,	-1,	-1,	-1,	-1,	-1,	4,	-1,	18,	-1,	-1,	-1,	-1|
-1,	-1,	16,	-1,	31,	-1,	15,	-1,	-1,	-1,	-1,	-1,	-1,	-1,	-1,	-1,	-1,	-1,	-1,	36,	-1,	-1,	-1,	-1,	-1,	2,	-1,	-1,	-1,	-1,	-1,	-1,	-1,	4,	-1,	-1|
-1,	-1,	22,	-1,	-1,	-1,	-1,	33,	-1,	6,	-1,	-1,	-1,	30,	18,	-1,	-1,	-1,	-1,	34,	-1,	7,	-1,	-1,	-1,	-1,	-1,	-1,	-1,	-1,	-1,	-1,	27,	26,	-1,	-1|
31,	5,	-1,	-1,	14,	30,	-1,	32,	-1,	-1,	33,	-1,	21,	35,	-1,	-1,	-1,	23,	25,	-1,	22,	20,	3,	-1,	-1,	-1,	-1,	1,	-1,	-1,	-1,	2,	-1,	-1,	-1,	-1|
-1,	24,	-1,	-1,	-1,	-1,	19,	-1,	36,	5,	-1,	-1,	-1,	-1,	-1,	27,	4,	-1,	33,	-1,	-1,	29,	14,	-1,	23,	-1,	-1,	21,	-1,	-1,	7,	22,	-1,	28,	15,	10|
22,	-1,	-1,	-1,	-1,	-1,	10,	-1,	-1,	16,	-1,	4,	-1,	18,	34,	-1,	-1,	-1,	-1,	-1,	27,	-1,	-1,	-1,	29,	33,	-1,	-1,	-1,	14,	-1,	-1,	-1,	-1,	36,	31|
-1,	28,	-1,	10,	-1,	-1,	22,	-1,	7,	-1,	14,	-1,	-1,	-1,	36,	-1,	-1,	5,	6,	-1,	-1,	-1,	21,	-1,	20,	34,	18,	4,	-1,	-1,	-1,	29,	9,	8,	-1,	35|
-1,	-1,	-1,	29,	-1,	-1,	-1,	20,	-1,	-1,	11,	-1,	-1,	19,	-1,	13,	7,	3,	-1,	-1,	16,	-1,	-1,	34,	26,	-1,	-1,	-1,	-1,	-1,	-1,	24,	33,	5,	25,	30|
-1,	35,	7,	13,	-1,	-1,	-1,	15,	-1,	-1,	-1,	-1,	-1,	25,	-1,	-1,	-1,	-1,	-1,	-1,	5,	28,	-1,	-1,	-1,	-1,	-1,	-1,	-1,	2,	-1,	-1,	-1,	12,	3,	-1|
6,	-1,	-1,	-1,	-1,	-1,	4,	5,	-1,	-1,	-1,	24,	-1,	-1,	-1,	-1,	-1,	-1,	-1,	-1,	20,	-1,	17,	-1,	-1,	-1,	14,	-1,	16,	-1,	-1,	12,	26,	15,	-1,	-1|
-1,	20,	-1,	-1,	-1,	-1,	-1,	-1,	-1,	-1,	21,	-1,	34,	-1,	-1,	-1,	27,	-1,	-1,	-1,	-1,	-1,	-1,	-1,	-1,	-1,	15,	-1,	-1,	-1,	-1,	-1,	-1,	-1,	5,	-1|
25,	23,	-1,	-1,	30,	16,	2,	-1,	-1,	17,	1,	-1,	15,	-1,	20,	-1,	-1,	-1,	13,	-1,	24,	14,	-1,	-1,	11,	-1,	10,	-1,	34,	-1,	-1,	-1,	-1,	-1,	-1,	19|
-1,	-1,	-1,	11,	35,	2,	-1,	-1,	-1,	-1,	19,	-1,	-1,	-1,	-1,	-1,	-1,	16,	-1,	21,	-1,	-1,	30,	36,	-1,	-1,	1,	-1,	31,	-1,	-1,	8,	-1,	10,	-1,	-1|
-1,	-1,	-1,	14,	-1,	-1,	-1,	-1,	35,	34,	-1,	-1,	2,	17,	22,	-1,	-1,	21,	-1,	-1,	8,	-1,	-1,	-1,	-1,	-1,	7,	-1,	-1,	-1,	-1,	-1,	24,	11,	-1,	-1|
28,	13,	-1,	-1,	-1,	-1,	31,	-1,	-1,	-1,	12,	33,	11,	-1,	-1,	9,	25,	32,	-1,	-1,	6,	18,	-1,	10,	-1,	4,	17,	-1,	-1,	-1,	-1,	30,	-1,	-1,	-1,	-1|
32,	3,	9,	-1,	12,	-1,	-1,	-1,	-1,	-1,	-1,	23,	-1,	15,	-1,	-1,	31,	27,	11,	-1,	-1,	-1,	-1,	28,	1,	30,	5,	20,	-1,	7,	-1,	-1,	34,	-1,	-1,	36|
-1,	30,	-1,	-1,	-1,	1,	-1,	-1,	-1,	-1,	25,	-1,	-1,	-1,	28,	-1,	-1,	8,	-1,	-1,	19,	17,	-1,	-1,	-1,	-1,	-1,	34,	-1,	24,	-1,	27,	-1,	-1,	-1,	-1|
17,	-1,	2,	-1,	-1,	-1,	-1,	-1,	-1,	4,	-1,	12,	-1,	-1,	-1,	23,	14,	-1,	-1,	-1,	-1,	-1,	5,	7,	-1,	35,	-1,	-1,	-1,	-1,	1,	28,	-1,	-1,	30,	33|
5,	-1,	14,	-1,	-1,	-1,	-1,	-1,	19,	21,	-1,	30,	-1,	-1,	-1,	-1,	18,	-1,	31,	4,	-1,	34,	2,	26,	-1,	-1,	28,	10,	33,	-1,	12,	-1,	29,	-1,	-1,	15|
-1,	-1,	-1,	-1,	-1,	33,	-1,	-1,	1,	-1,	-1,	-1,	-1,	22,	-1,	30,	-1,	-1,	36,	-1,	12,	-1,	-1,	-1,	-1,	21,	-1,	17,	3,	-1,	-1,	-1,	18,	-1,	16,	-1|
-1,	-1,	27,	-1,	-1,	-1,	35,	-1,	33,	-1,	5,	-1,	-1,	-1,	-1,	7,	-1,	20,	-1,	-1,	1,	-1,	-1,	-1,	-1,	-1,	-1,	-1,	-1,	-1,	25,	-1,	-1,	-1,	2,	-1|];
